
========================================
         Starting Pipeline for: StockOrder (Mode: ClassicalCVC5)
========================================
Initializing pipeline for benchmark: 'StockOrder'
   -> Loading and validating attributes from: /Dualis/scripts/../benchmarks/Classical/StockOrder/Attributes.txt
      -> Validation successful. Attribute file is consistent.
Total External Iterations: 0
Total Unique Test Cases Found: 0

==================== Iteration: 1 ====================
TIMEOUT : 20
   -> Parsing SYGUS file: /Dualis/scripts/../benchmarks/ClassicalCVC5_working_temp/StockOrder/StockOrder.sy
   -> Starting CVC5 with a 1000-second timeout...
      -> Logging CVC5 output to iter_1.log
   -> CVC5 completed successfully.
   -> Writing new specs to harness: addStockOrder_fuzz.cpp...
      -> Successfully created working copy '/Dualis/scripts/../benchmarks/ClassicalCVC5_working_temp/StockOrder/addStockOrder_fuzz.cpp'.
   -> Starting AFL++(addStockOrder_fuzz) with a 20-second timeout...
   -> Building AFL-instrumented binary: /Dualis/scripts/../benchmarks/ClassicalCVC5_working_temp/StockOrder/addStockOrder_fuzz
   -> AFL++(addStockOrder_fuzz) finished its fuzzing session.
   -> Checking fuzzing outputs for counterexamples...
Checking crashes
   -> Found 4 crash reports. Testing reproducibility...
   -> CRASH REPRODUCED with id:000001,sig:06,src:000000,time:379,execs:46,op:havoc,rep:1
   -> CRASH REPRODUCED with id:000000,sig:06,src:000000,time:182,execs:21,op:havoc,rep:2
   -> CRASH REPRODUCED with id:000002,sig:06,src:000000,time:572,execs:91,op:havoc,rep:2
   -> CRASH REPRODUCED with id:000003,sig:06,src:000000,time:770,execs:105,op:havoc,rep:2
Checking queue
   -> Found 2 crash reports. Testing reproducibility...
Checking hangs
   -> Converting counterexamples for 'addStockOrder'...
       -> Found and validated 15 new constraints.
   -> Updating CHC file with new counterexamples...

=============== Artifacts This Iteration ===============

--- Generated Specs ---
  addStockOrder: (len1 == minDiff1)
  inv: (len <= minDiff)

--- New Test Cases Found ---

--- Updated SYGUS (for next iteration) ---
(set-logic LIA)

(synth-fun addStockOrder ((stock Int) (order Int) (len Int) (minDiff Int) (len1 Int) (minDiff1 Int)) Bool((Start Bool) (Expr Int))((Start Bool ((<= Expr Expr) (>= Expr Expr) (= Expr Expr) (and Start Start) (or Start Start) (not Start)))(Expr Int (stock order len minDiff len1 minDiff1 (+ Expr Expr) (- Expr Expr)))))
(synth-fun inv ((len Int) (minDiff Int)) Bool((Start Bool) (Expr Int))((Start Bool ((<= Expr Expr) (>= Expr Expr) (= Expr Expr) (and Start Start) (or Start Start) (not Start)))(Expr Int (len minDiff (+ Expr Expr) (- Expr Expr)))))

(declare-var len Int)
(declare-var len1 Int)
(declare-var minDiff Int)
(declare-var minDiff1 Int)
(declare-var stock Int)
(declare-var order Int)

(define-fun MAX () Int 128)
(define-fun MIN () Int -129)

(constraint (addStockOrder 255 255 0 1 128 0))
(constraint (addStockOrder 94 15 1 2 118 79))
(constraint (addStockOrder 74 255 1 2 181 181))
(constraint (addStockOrder 255 255 8 9 0 0))
(constraint (addStockOrder 255 255 2 3 0 0))
(constraint (addStockOrder 0 128 2 3 0 0))
(constraint (addStockOrder 27 255 0 1 128 228))
(constraint (addStockOrder 255 100 1 2 64 64))
(constraint (addStockOrder 255 128 0 1 128 127))
(constraint (addStockOrder 255 255 3 4 0 0))
(constraint (addStockOrder 1 0 13 14 0 0))
(constraint (addStockOrder 100 255 0 1 128 155))
(constraint (addStockOrder 232 255 1 2 0 0))
(constraint (addStockOrder 255 255 2 3 254 0))
(constraint (addStockOrder 10 255 0 1 128 245))

(constraint (=> (and (= len 0) (= minDiff MAX)) (inv len minDiff)))
(constraint (=> (and (inv len minDiff) (>= stock 0) (>= order 0) (<= order stock) (addStockOrder stock order len minDiff len1 minDiff1)) (inv len1 minDiff1)))
(constraint (=> (and (inv len minDiff) (not (and (>= stock 0) (>= order 0) (<= order stock)))) (inv len minDiff)))
(constraint (=> (inv len minDiff) (=> (>= len 0) (>= minDiff 0))))

(check-synth)
==============================================================
   -> Checking if specs have changed...
      -> SYGUS files are different. Continuing iteration.

==================== Iteration: 2 ====================
TIMEOUT : 40
   -> Parsing SYGUS file: /Dualis/scripts/../benchmarks/ClassicalCVC5_working_temp/StockOrder/StockOrder.sy
   -> Starting CVC5 with a 1000-second timeout...
      -> Logging CVC5 output to iter_2.log
   -> CVC5 completed successfully.
   -> Writing new specs to harness: addStockOrder_fuzz.cpp...
      -> Successfully created working copy '/Dualis/scripts/../benchmarks/ClassicalCVC5_working_temp/StockOrder/addStockOrder_fuzz.cpp'.
   -> Starting AFL++(addStockOrder_fuzz) with a 40-second timeout...
   -> Building AFL-instrumented binary: /Dualis/scripts/../benchmarks/ClassicalCVC5_working_temp/StockOrder/addStockOrder_fuzz
   -> AFL++(addStockOrder_fuzz) finished its fuzzing session.
   -> Checking fuzzing outputs for counterexamples...
Checking crashes
Checking queue
   -> Found 38 crash reports. Testing reproducibility...
Checking hangs
   -> Converting counterexamples for 'addStockOrder'...
       -> Found and validated 15 new constraints.
   -> Updating CHC file with new counterexamples...

=============== Artifacts This Iteration ===============

--- Generated Specs ---
  addStockOrder: (stock <= (minDiff1 + stock))
  inv: (len <= (len + minDiff))

--- New Test Cases Found ---

--- Updated SYGUS (for next iteration) ---
(set-logic LIA)

(synth-fun addStockOrder ((stock Int) (order Int) (len Int) (minDiff Int) (len1 Int) (minDiff1 Int)) Bool((Start Bool) (Expr Int))((Start Bool ((<= Expr Expr) (>= Expr Expr) (= Expr Expr) (and Start Start) (or Start Start) (not Start)))(Expr Int (stock order len minDiff len1 minDiff1 (+ Expr Expr) (- Expr Expr)))))
(synth-fun inv ((len Int) (minDiff Int)) Bool((Start Bool) (Expr Int))((Start Bool ((<= Expr Expr) (>= Expr Expr) (= Expr Expr) (and Start Start) (or Start Start) (not Start)))(Expr Int (len minDiff (+ Expr Expr) (- Expr Expr)))))

(declare-var len Int)
(declare-var len1 Int)
(declare-var minDiff Int)
(declare-var minDiff1 Int)
(declare-var stock Int)
(declare-var order Int)

(define-fun MAX () Int 128)
(define-fun MIN () Int -129)


(constraint (addStockOrder 255 255 0 1 128 0))
(constraint (addStockOrder 94 15 1 2 118 79))
(constraint (addStockOrder 74 255 1 2 181 181))
(constraint (addStockOrder 255 255 8 9 0 0))
(constraint (addStockOrder 255 255 2 3 0 0))
(constraint (addStockOrder 0 128 2 3 0 0))
(constraint (addStockOrder 27 255 0 1 128 228))
(constraint (addStockOrder 255 100 1 2 64 64))
(constraint (addStockOrder 255 128 0 1 128 127))
(constraint (addStockOrder 255 255 3 4 0 0))
(constraint (addStockOrder 1 0 13 14 0 0))
(constraint (addStockOrder 100 255 0 1 128 155))
(constraint (addStockOrder 232 255 1 2 0 0))
(constraint (addStockOrder 255 255 2 3 254 0))
(constraint (addStockOrder 10 255 0 1 128 245))
(constraint (=> (and (= len 0) (= minDiff MAX)) (inv len minDiff)))
(constraint (=> (and (inv len minDiff) (>= stock 0) (>= order 0) (<= order stock) (addStockOrder stock order len minDiff len1 minDiff1)) (inv len1 minDiff1)))
(constraint (=> (and (inv len minDiff) (not (and (>= stock 0) (>= order 0) (<= order stock)))) (inv len minDiff)))
(constraint (=> (inv len minDiff) (=> (>= len 0) (>= minDiff 0))))

(check-synth)
==============================================================
   -> Checking if specs have changed...
      -> SYGUS files are different. Continuing iteration.

==================== Iteration: 3 ====================
TIMEOUT : 60
   -> Parsing SYGUS file: /Dualis/scripts/../benchmarks/ClassicalCVC5_working_temp/StockOrder/StockOrder.sy
   -> Starting CVC5 with a 1000-second timeout...
      -> Logging CVC5 output to iter_3.log
   -> CVC5 completed successfully.
   -> Writing new specs to harness: addStockOrder_fuzz.cpp...
      -> Successfully created working copy '/Dualis/scripts/../benchmarks/ClassicalCVC5_working_temp/StockOrder/addStockOrder_fuzz.cpp'.
   -> Starting AFL++(addStockOrder_fuzz) with a 60-second timeout...
   -> Building AFL-instrumented binary: /Dualis/scripts/../benchmarks/ClassicalCVC5_working_temp/StockOrder/addStockOrder_fuzz
   -> AFL++(addStockOrder_fuzz) finished its fuzzing session.
   -> Checking fuzzing outputs for counterexamples...
Checking crashes
Checking queue
   -> Found 45 crash reports. Testing reproducibility...
Checking hangs
   -> Converting counterexamples for 'addStockOrder'...
       -> Found and validated 15 new constraints.
   -> Updating CHC file with new counterexamples...

=============== Artifacts This Iteration ===============

--- Generated Specs ---
  addStockOrder: (stock <= (minDiff1 + stock))
  inv: (len <= (len + minDiff))

--- New Test Cases Found ---

--- Updated SYGUS (for next iteration) ---
(set-logic LIA)

(synth-fun addStockOrder ((stock Int) (order Int) (len Int) (minDiff Int) (len1 Int) (minDiff1 Int)) Bool((Start Bool) (Expr Int))((Start Bool ((<= Expr Expr) (>= Expr Expr) (= Expr Expr) (and Start Start) (or Start Start) (not Start)))(Expr Int (stock order len minDiff len1 minDiff1 (+ Expr Expr) (- Expr Expr)))))
(synth-fun inv ((len Int) (minDiff Int)) Bool((Start Bool) (Expr Int))((Start Bool ((<= Expr Expr) (>= Expr Expr) (= Expr Expr) (and Start Start) (or Start Start) (not Start)))(Expr Int (len minDiff (+ Expr Expr) (- Expr Expr)))))

(declare-var len Int)
(declare-var len1 Int)
(declare-var minDiff Int)
(declare-var minDiff1 Int)
(declare-var stock Int)
(declare-var order Int)

(define-fun MAX () Int 128)
(define-fun MIN () Int -129)


(constraint (addStockOrder 255 255 0 1 128 0))
(constraint (addStockOrder 94 15 1 2 118 79))
(constraint (addStockOrder 74 255 1 2 181 181))
(constraint (addStockOrder 255 255 8 9 0 0))
(constraint (addStockOrder 255 255 2 3 0 0))
(constraint (addStockOrder 0 128 2 3 0 0))
(constraint (addStockOrder 27 255 0 1 128 228))
(constraint (addStockOrder 255 100 1 2 64 64))
(constraint (addStockOrder 255 128 0 1 128 127))
(constraint (addStockOrder 255 255 3 4 0 0))
(constraint (addStockOrder 1 0 13 14 0 0))
(constraint (addStockOrder 100 255 0 1 128 155))
(constraint (addStockOrder 232 255 1 2 0 0))
(constraint (addStockOrder 255 255 2 3 254 0))
(constraint (addStockOrder 10 255 0 1 128 245))
(constraint (=> (and (= len 0) (= minDiff MAX)) (inv len minDiff)))
(constraint (=> (and (inv len minDiff) (>= stock 0) (>= order 0) (<= order stock) (addStockOrder stock order len minDiff len1 minDiff1)) (inv len1 minDiff1)))
(constraint (=> (and (inv len minDiff) (not (and (>= stock 0) (>= order 0) (<= order stock)))) (inv len minDiff)))
(constraint (=> (inv len minDiff) (=> (>= len 0) (>= minDiff 0))))

(check-synth)
==============================================================
   -> Checking if specs have changed...
      -> SYGUS files are identical. Pipeline has converged.
   -> 15-minute deep fuzzing converged. Pipeline complete.

==================== Finalizing Pipeline ====================

====================== Pipeline Finished =====================
Total External Iterations: 3
Total Unique Test Cases Found: 45
pipeline.run() took 0.0484 seconds.
Running command: /usr/bin/python3 chcverifynfuzz.py ClassicalCVC5 StockOrder
PID: 32
========================================


Total Pipeline Duration: 130.53s
